NAME: random-24-4258
TYPE: TSP
COMMENT: size=24 seed=4258
DIMENSION: 50
EDGE_WEIGHT_TYPE: EUC_2D
NODE_COORD_SECTION
+0 206 922
-0 206 922
+1 544 172
-1 952 694
+2 10 509
-2 616 53
+3 850 727
-3 777 789
+4 887 378
-4 816 148
+5 455 774
-5 893 739
+6 986 493
-6 565 476
+7 691 135
-7 254 593
+8 397 192
-8 282 455
+9 211 102
-9 689 733
+10 489 975
-10 575 759
+11 352 287
-11 41 229
+12 885 980
-12 97 476
+13 900 562
-13 81 344
+14 55 734
-14 203 695
+15 32 72
-15 536 566
+16 611 433
-16 15 522
+17 179 556
-17 480 253
+18 17 877
-18 185 893
+19 372 477
-19 76 89
+20 642 401
-20 933 901
+21 74 350
-21 392 296
+22 373 283
-22 680 46
+23 672 861
-23 164 534
+24 890 745
-24 542 256
PRECEDENCE_SECTION
+0 -0
+1 -1
+2 -2
+3 -3
+4 -4
+5 -5
+6 -6
+7 -7
+8 -8
+9 -9
+10 -10
+11 -11
+12 -12
+13 -13
+14 -14
+15 -15
+16 -16
+17 -17
+18 -18
+19 -19
+20 -20
+21 -21
+22 -22
+23 -23
+24 -24
EOF
